p tw 176 39601 2 
1 3 
1 4 
1 5 
1 6 
1 7 
1 8 
1 9 
1 10 
1 11 
1 12 
1 13 
1 14 
1 15 
1 16 
1 17 
1 18 
1 19 
1 20 
1 21 
1 22 
1 23 
1 24 
1 25 
1 26 
1 27 
1 28 
1 29 
1 30 
1 31 
1 32 
1 33 
1 34 
1 35 
1 36 
1 37 
1 38 
1 39 
1 40 
1 41 
1 42 
1 43 
1 44 
1 45 
1 46 
2 3 
2 4 
2 5 
2 6 
2 7 
2 8 
2 9 
2 10 
2 11 
2 12 
2 13 
2 14 
2 15 
2 16 
2 17 
2 24 
2 32 
2 43 
2 47 
2 48 
2 49 
2 50 
2 51 
2 52 
2 53 
2 54 
2 55 
2 56 
2 57 
2 58 
2 59 
2 70 
2 81 
2 91 
2 97 
2 112 
2 120 
2 126 
2 140 
2 144 
2 154 
2 160 
2 163 
2 164 
3 4 
3 5 
3 6 
3 7 
3 8 
3 9 
3 10 
3 11 
3 12 
3 13 
3 14 
3 15 
3 16 
3 18 
3 20 
3 33 
3 35 
3 47 
3 48 
3 60 
3 61 
3 62 
3 63 
3 64 
3 65 
3 66 
3 67 
3 68 
3 69 
3 70 
3 71 
3 72 
3 84 
3 85 
3 86 
3 87 
3 88 
3 89 
3 90 
3 91 
3 92 
3 93 
3 94 
4 5 
4 6 
4 7 
4 8 
4 9 
4 10 
4 11 
4 12 
4 13 
4 14 
4 15 
4 16 
4 19 
4 31 
4 34 
4 42 
4 47 
4 51 
4 71 
4 72 
4 73 
4 74 
4 75 
4 76 
4 77 
4 78 
4 79 
4 80 
4 81 
4 82 
4 83 
4 90 
4 104 
4 111 
4 121 
4 126 
4 142 
4 143 
4 151 
4 166 
4 174 
4 176 
5 6 
5 7 
5 8 
5 9 
5 10 
5 11 
5 12 
5 13 
5 14 
5 15 
5 16 
5 19 
5 25 
5 36 
5 40 
5 49 
5 52 
5 60 
5 64 
5 76 
5 84 
5 86 
5 95 
5 96 
5 97 
5 98 
5 99 
5 100 
5 101 
5 102 
5 103 
5 104 
5 107 
5 116 
5 130 
5 137 
5 138 
5 139 
5 140 
5 141 
5 142 
6 7 
6 8 
6 9 
6 10 
6 11 
6 12 
6 13 
6 14 
6 15 
6 16 
6 21 
6 30 
6 32 
6 46 
6 54 
6 61 
6 70 
6 73 
6 79 
6 84 
6 92 
6 99 
6 105 
6 106 
6 107 
6 108 
6 109 
6 110 
6 111 
6 112 
6 113 
6 114 
6 122 
6 123 
6 133 
6 142 
6 159 
6 170 
6 173 
6 175 
7 8 
7 9 
7 10 
7 11 
7 12 
7 13 
7 14 
7 15 
7 16 
7 22 
7 30 
7 37 
7 41 
7 48 
7 49 
7 62 
7 66 
7 74 
7 81 
7 85 
7 104 
7 105 
7 113 
7 115 
7 116 
7 117 
7 118 
7 119 
7 120 
7 121 
7 122 
7 125 
7 135 
7 141 
7 155 
7 156 
7 161 
7 167 
7 169 
8 9 
8 10 
8 11 
8 12 
8 13 
8 14 
8 15 
8 16 
8 23 
8 27 
8 34 
8 38 
8 50 
8 57 
8 61 
8 69 
8 75 
8 86 
8 87 
8 95 
8 101 
8 111 
8 115 
8 119 
8 123 
8 124 
8 125 
8 126 
8 127 
8 128 
8 129 
8 133 
8 139 
8 150 
8 158 
8 160 
8 161 
8 162 
9 10 
9 11 
9 12 
9 13 
9 14 
9 15 
9 16 
9 24 
9 28 
9 39 
9 40 
9 51 
9 56 
9 63 
9 65 
9 72 
9 83 
9 94 
9 95 
9 96 
9 106 
9 108 
9 115 
9 122 
9 130 
9 131 
9 132 
9 133 
9 134 
9 135 
9 136 
9 150 
9 164 
9 165 
9 169 
9 171 
9 174 
10 11 
10 12 
10 13 
10 14 
10 15 
10 16 
10 21 
10 22 
10 41 
10 44 
10 53 
10 59 
10 65 
10 67 
10 77 
10 78 
10 87 
10 89 
10 96 
10 103 
10 106 
10 117 
10 123 
10 129 
10 137 
10 140 
10 143 
10 144 
10 145 
10 146 
10 147 
10 161 
10 166 
10 170 
10 171 
10 172 
11 12 
11 13 
11 14 
11 15 
11 16 
11 23 
11 26 
11 35 
11 45 
11 54 
11 58 
11 60 
11 66 
11 76 
11 78 
11 94 
11 97 
11 105 
11 114 
11 121 
11 124 
11 131 
11 132 
11 137 
11 146 
11 148 
11 149 
11 150 
11 151 
11 152 
11 157 
11 158 
11 163 
11 167 
11 170 
12 13 
12 14 
12 15 
12 16 
12 26 
12 27 
12 38 
12 42 
12 50 
12 52 
12 67 
12 71 
12 79 
12 80 
12 85 
12 88 
12 98 
12 100 
12 108 
12 113 
12 117 
12 132 
12 136 
12 138 
12 145 
12 148 
12 153 
12 154 
12 155 
12 162 
12 163 
12 168 
12 171 
12 173 
13 14 
13 15 
13 16 
13 17 
13 28 
13 43 
13 46 
13 55 
13 62 
13 63 
13 80 
13 83 
13 89 
13 91 
13 98 
13 99 
13 109 
13 114 
13 118 
13 124 
13 128 
13 134 
13 139 
13 141 
13 143 
13 147 
13 149 
13 153 
13 156 
13 157 
13 162 
13 172 
13 176 
14 15 
14 16 
14 18 
14 29 
14 37 
14 44 
14 56 
14 58 
14 68 
14 74 
14 82 
14 90 
14 92 
14 100 
14 102 
14 107 
14 110 
14 125 
14 127 
14 130 
14 134 
14 144 
14 145 
14 148 
14 149 
14 153 
14 156 
14 158 
14 159 
14 160 
14 165 
14 166 
15 16 
15 25 
15 31 
15 36 
15 39 
15 53 
15 57 
15 68 
15 69 
15 73 
15 77 
15 88 
15 93 
15 103 
15 112 
15 116 
15 118 
15 127 
15 128 
15 136 
15 151 
15 152 
15 154 
15 157 
15 159 
15 165 
15 167 
15 168 
15 169 
15 172 
15 175 
16 20 
16 29 
16 33 
16 45 
16 55 
16 59 
16 64 
16 75 
16 82 
16 93 
16 101 
16 102 
16 109 
16 110 
16 119 
16 120 
16 129 
16 131 
16 135 
16 138 
16 146 
16 147 
16 152 
16 155 
16 164 
16 168 
16 173 
16 174 
16 175 
16 176 
17 18 
17 19 
17 20 
17 21 
17 22 
17 23 
17 24 
17 25 
17 26 
17 27 
17 28 
17 29 
17 30 
17 31 
17 32 
17 46 
17 47 
17 48 
17 49 
17 50 
17 51 
17 52 
17 53 
17 54 
17 55 
17 56 
17 57 
17 58 
17 59 
17 62 
17 83 
17 91 
17 98 
17 114 
17 128 
17 134 
17 141 
17 147 
17 149 
17 162 
17 172 
17 176 
18 19 
18 20 
18 21 
18 22 
18 23 
18 24 
18 25 
18 26 
18 27 
18 28 
18 29 
18 30 
18 31 
18 33 
18 37 
18 47 
18 58 
18 60 
18 61 
18 62 
18 63 
18 64 
18 65 
18 66 
18 67 
18 68 
18 69 
18 70 
18 71 
18 82 
18 92 
18 102 
18 107 
18 127 
18 134 
18 145 
18 148 
18 156 
18 160 
18 165 
18 166 
19 20 
19 21 
19 22 
19 23 
19 24 
19 25 
19 26 
19 27 
19 28 
19 29 
19 30 
19 31 
19 34 
19 36 
19 47 
19 49 
19 60 
19 72 
19 73 
19 74 
19 75 
19 76 
19 77 
19 78 
19 79 
19 80 
19 81 
19 82 
19 83 
19 84 
19 95 
19 96 
19 97 
19 98 
19 99 
19 100 
19 101 
19 102 
19 103 
19 104 
20 21 
20 22 
20 23 
20 24 
20 25 
20 26 
20 27 
20 28 
20 29 
20 30 
20 31 
20 35 
20 45 
20 48 
20 55 
20 64 
20 72 
20 82 
20 84 
20 85 
20 86 
20 87 
20 88 
20 89 
20 90 
20 91 
20 92 
20 93 
20 94 
20 101 
20 110 
20 120 
20 129 
20 131 
20 147 
20 155 
20 168 
20 174 
20 175 
21 22 
21 23 
21 24 
21 25 
21 26 
21 27 
21 28 
21 29 
21 30 
21 31 
21 32 
21 41 
21 53 
21 61 
21 65 
21 73 
21 77 
21 84 
21 87 
21 96 
21 105 
21 106 
21 107 
21 108 
21 109 
21 110 
21 111 
21 112 
21 113 
21 114 
21 117 
21 123 
21 137 
21 143 
21 144 
21 145 
21 146 
21 147 
22 23 
22 24 
22 25 
22 26 
22 27 
22 28 
22 29 
22 30 
22 31 
22 37 
22 44 
22 49 
22 59 
22 62 
22 67 
22 74 
22 78 
22 85 
22 89 
22 103 
22 105 
22 106 
22 115 
22 116 
22 117 
22 118 
22 119 
22 120 
22 121 
22 122 
22 129 
22 140 
22 161 
22 166 
22 170 
22 171 
22 172 
23 24 
23 25 
23 26 
23 27 
23 28 
23 29 
23 30 
23 31 
23 38 
23 45 
23 50 
23 58 
23 60 
23 61 
23 75 
23 76 
23 86 
23 94 
23 95 
23 114 
23 115 
23 121 
23 123 
23 124 
23 125 
23 126 
23 127 
23 128 
23 129 
23 132 
23 146 
23 157 
23 158 
23 163 
23 167 
23 170 
24 25 
24 26 
24 27 
24 28 
24 29 
24 30 
24 31 
24 39 
24 43 
24 51 
24 63 
24 70 
24 72 
24 81 
24 91 
24 96 
24 97 
24 106 
24 112 
24 115 
24 120 
24 126 
24 130 
24 131 
24 132 
24 133 
24 134 
24 135 
24 136 
24 140 
24 144 
24 154 
24 160 
24 163 
24 164 
25 26 
25 27 
25 28 
25 29 
25 30 
25 31 
25 39 
25 40 
25 52 
25 53 
25 64 
25 69 
25 73 
25 76 
25 86 
25 93 
25 103 
25 107 
25 116 
25 118 
25 128 
25 130 
25 137 
25 138 
25 139 
25 140 
25 141 
25 142 
25 151 
25 154 
25 159 
25 165 
25 167 
25 168 
26 27 
26 28 
26 29 
26 30 
26 31 
26 35 
26 38 
26 52 
26 54 
26 66 
26 71 
26 78 
26 80 
26 85 
26 97 
26 100 
26 105 
26 113 
26 124 
26 131 
26 136 
26 137 
26 145 
26 148 
26 149 
26 150 
26 151 
26 152 
26 162 
26 163 
26 168 
26 171 
26 173 
27 28 
27 29 
27 30 
27 31 
27 34 
27 42 
27 50 
27 57 
27 67 
27 69 
27 79 
27 87 
27 88 
27 98 
27 101 
27 108 
27 111 
27 117 
27 119 
27 132 
27 133 
27 138 
27 139 
27 148 
27 150 
27 153 
27 154 
27 155 
27 158 
27 160 
27 161 
27 162 
28 29 
28 30 
28 31 
28 40 
28 43 
28 55 
28 56 
28 63 
28 65 
28 80 
28 83 
28 89 
28 94 
28 95 
28 99 
28 108 
28 109 
28 118 
28 122 
28 124 
28 139 
28 143 
28 150 
28 153 
28 156 
28 157 
28 164 
28 165 
28 169 
28 171 
28 174 
29 30 
29 31 
29 33 
29 44 
29 56 
29 59 
29 68 
29 74 
29 75 
29 90 
29 93 
29 100 
29 102 
29 109 
29 110 
29 119 
29 125 
29 130 
29 135 
29 138 
29 144 
29 146 
29 149 
29 152 
29 153 
29 158 
29 159 
29 164 
29 173 
29 176 
30 31 
30 41 
30 46 
30 48 
30 54 
30 66 
30 70 
30 79 
30 81 
30 92 
30 99 
30 104 
30 113 
30 122 
30 123 
30 125 
30 133 
30 135 
30 141 
30 142 
30 155 
30 156 
30 159 
30 161 
30 167 
30 169 
30 170 
30 173 
30 175 
31 36 
31 42 
31 51 
31 57 
31 68 
31 71 
31 77 
31 88 
31 90 
31 104 
31 111 
31 112 
31 116 
31 121 
31 126 
31 127 
31 136 
31 142 
31 143 
31 151 
31 152 
31 157 
31 166 
31 169 
31 172 
31 174 
31 175 
31 176 
32 33 
32 34 
32 35 
32 36 
32 37 
32 38 
32 39 
32 40 
32 41 
32 42 
32 43 
32 44 
32 45 
32 46 
32 47 
32 48 
32 49 
32 50 
32 51 
32 52 
32 53 
32 54 
32 55 
32 56 
32 57 
32 58 
32 59 
32 61 
32 73 
32 84 
32 105 
32 106 
32 107 
32 108 
32 109 
32 110 
32 111 
32 112 
32 113 
32 114 
33 34 
33 35 
33 36 
33 37 
33 38 
33 39 
33 40 
33 41 
33 42 
33 43 
33 44 
33 45 
33 46 
33 47 
33 59 
33 60 
33 61 
33 62 
33 63 
33 64 
33 65 
33 66 
33 67 
33 68 
33 69 
33 70 
33 71 
33 75 
33 93 
33 102 
33 109 
33 119 
33 135 
33 138 
33 146 
33 152 
33 164 
33 173 
33 176 
34 35 
34 36 
34 37 
34 38 
34 39 
34 40 
34 41 
34 42 
34 43 
34 44 
34 45 
34 46 
34 47 
34 57 
34 69 
34 72 
34 73 
34 74 
34 75 
34 76 
34 77 
34 78 
34 79 
34 80 
34 81 
34 82 
34 83 
34 87 
34 101 
34 111 
34 119 
34 133 
34 139 
34 150 
34 158 
34 160 
34 161 
34 162 
35 36 
35 37 
35 38 
35 39 
35 40 
35 41 
35 42 
35 43 
35 44 
35 45 
35 46 
35 48 
35 54 
35 66 
35 72 
35 78 
35 84 
35 85 
35 86 
35 87 
35 88 
35 89 
35 90 
35 91 
35 92 
35 93 
35 94 
35 97 
35 105 
35 124 
35 131 
35 137 
35 148 
35 149 
35 150 
35 151 
35 152 
36 37 
36 38 
36 39 
36 40 
36 41 
36 42 
36 43 
36 44 
36 45 
36 46 
36 49 
36 57 
36 60 
36 68 
36 77 
36 84 
36 88 
36 95 
36 96 
36 97 
36 98 
36 99 
36 100 
36 101 
36 102 
36 103 
36 104 
36 112 
36 116 
36 127 
36 136 
36 152 
36 157 
36 169 
36 172 
36 175 
37 38 
37 39 
37 40 
37 41 
37 42 
37 43 
37 44 
37 45 
37 46 
37 49 
37 58 
37 62 
37 74 
37 82 
37 85 
37 92 
37 102 
37 105 
37 107 
37 115 
37 116 
37 117 
37 118 
37 119 
37 120 
37 121 
37 122 
37 127 
37 134 
37 145 
37 148 
37 156 
37 160 
37 165 
37 166 
38 39 
38 40 
38 41 
38 42 
38 43 
38 44 
38 45 
38 46 
38 50 
38 52 
38 61 
38 71 
38 75 
38 80 
38 85 
38 86 
38 95 
38 100 
38 113 
38 115 
38 123 
38 124 
38 125 
38 126 
38 127 
38 128 
38 129 
38 136 
38 145 
38 162 
38 163 
38 168 
38 171 
38 173 
39 40 
39 41 
39 42 
39 43 
39 44 
39 45 
39 46 
39 51 
39 53 
39 63 
39 69 
39 72 
39 73 
39 93 
39 96 
39 103 
39 106 
39 115 
39 118 
39 128 
39 130 
39 131 
39 132 
39 133 
39 134 
39 135 
39 136 
39 151 
39 154 
39 159 
39 165 
39 167 
39 168 
40 41 
40 42 
40 43 
40 44 
40 45 
40 46 
40 52 
40 56 
40 64 
40 65 
40 76 
40 83 
40 86 
40 94 
40 95 
40 107 
40 108 
40 116 
40 122 
40 130 
40 137 
40 138 
40 139 
40 140 
40 141 
40 142 
40 150 
40 164 
40 165 
40 169 
40 171 
40 174 
41 42 
41 43 
41 44 
41 45 
41 46 
41 48 
41 53 
41 65 
41 66 
41 77 
41 81 
41 87 
41 96 
41 104 
41 113 
41 117 
41 123 
41 125 
41 135 
41 137 
41 141 
41 143 
41 144 
41 145 
41 146 
41 147 
41 155 
41 156 
41 161 
41 167 
41 169 
42 43 
42 44 
42 45 
42 46 
42 50 
42 51 
42 67 
42 71 
42 79 
42 88 
42 90 
42 98 
42 104 
42 108 
42 111 
42 117 
42 121 
42 126 
42 132 
42 138 
42 142 
42 143 
42 148 
42 151 
42 153 
42 154 
42 155 
42 166 
42 174 
42 176 
43 44 
43 45 
43 46 
43 55 
43 63 
43 70 
43 80 
43 81 
43 89 
43 91 
43 97 
43 99 
43 109 
43 112 
43 118 
43 120 
43 124 
43 126 
43 139 
43 140 
43 143 
43 144 
43 153 
43 154 
43 156 
43 157 
43 160 
43 163 
43 164 
44 45 
44 46 
44 56 
44 59 
44 67 
44 68 
44 74 
44 78 
44 89 
44 90 
44 100 
44 103 
44 106 
44 110 
44 125 
44 129 
44 130 
44 140 
44 144 
44 149 
44 153 
44 158 
44 159 
44 161 
44 166 
44 170 
44 171 
44 172 
45 46 
45 55 
45 58 
45 60 
45 64 
45 76 
45 82 
45 94 
45 101 
45 110 
45 114 
45 120 
45 121 
45 129 
45 131 
45 132 
45 146 
45 147 
45 155 
45 157 
45 158 
45 163 
45 167 
45 168 
45 170 
45 174 
45 175 
46 54 
46 62 
46 70 
46 79 
46 83 
46 91 
46 92 
46 98 
46 99 
46 114 
46 122 
46 123 
46 128 
46 133 
46 134 
46 141 
46 142 
46 147 
46 149 
46 159 
46 162 
46 170 
46 172 
46 173 
46 175 
46 176 
47 48 
47 49 
47 50 
47 51 
47 52 
47 53 
47 54 
47 55 
47 56 
47 57 
47 58 
47 59 
47 60 
47 61 
47 62 
47 63 
47 64 
47 65 
47 66 
47 67 
47 68 
47 69 
47 70 
47 71 
47 72 
47 73 
47 74 
47 75 
47 76 
47 77 
47 78 
47 79 
47 80 
47 81 
47 82 
47 83 
48 49 
48 50 
48 51 
48 52 
48 53 
48 54 
48 55 
48 56 
48 57 
48 58 
48 59 
48 66 
48 72 
48 81 
48 84 
48 85 
48 86 
48 87 
48 88 
48 89 
48 90 
48 91 
48 92 
48 93 
48 94 
48 104 
48 113 
48 125 
48 135 
48 141 
48 155 
48 156 
48 161 
48 167 
48 169 
49 50 
49 51 
49 52 
49 53 
49 54 
49 55 
49 56 
49 57 
49 58 
49 59 
49 60 
49 62 
49 74 
49 84 
49 85 
49 95 
49 96 
49 97 
49 98 
49 99 
49 100 
49 101 
49 102 
49 103 
49 104 
49 105 
49 115 
49 116 
49 117 
49 118 
49 119 
49 120 
49 121 
49 122 
50 51 
50 52 
50 53 
50 54 
50 55 
50 56 
50 57 
50 58 
50 59 
50 61 
50 67 
50 75 
50 79 
50 86 
50 88 
50 95 
50 98 
50 108 
50 115 
50 117 
50 123 
50 124 
50 125 
50 126 
50 127 
50 128 
50 129 
50 132 
50 138 
50 148 
50 153 
50 154 
50 155 
51 52 
51 53 
51 54 
51 55 
51 56 
51 57 
51 58 
51 59 
51 63 
51 71 
51 72 
51 90 
51 96 
51 104 
51 106 
51 111 
51 115 
51 121 
51 126 
51 130 
51 131 
51 132 
51 133 
51 134 
51 135 
51 136 
51 142 
51 143 
51 151 
51 166 
51 174 
51 176 
52 53 
52 54 
52 55 
52 56 
52 57 
52 58 
52 59 
52 64 
52 71 
52 76 
52 80 
52 85 
52 86 
52 100 
52 107 
52 113 
52 116 
52 130 
52 136 
52 137 
52 138 
52 139 
52 140 
52 141 
52 142 
52 145 
52 162 
52 163 
52 168 
52 171 
52 173 
53 54 
53 55 
53 56 
53 57 
53 58 
53 59 
53 65 
53 69 
53 73 
53 77 
53 87 
53 93 
53 96 
53 103 
53 117 
53 118 
53 123 
53 128 
53 137 
53 143 
53 144 
53 145 
53 146 
53 147 
53 151 
53 154 
53 159 
53 165 
53 167 
53 168 
54 55 
54 56 
54 57 
54 58 
54 59 
54 66 
54 70 
54 78 
54 79 
54 92 
54 97 
54 99 
54 105 
54 122 
54 123 
54 124 
54 131 
54 133 
54 137 
54 142 
54 148 
54 149 
54 150 
54 151 
54 152 
54 159 
54 170 
54 173 
54 175 
55 56 
55 57 
55 58 
55 59 
55 63 
55 64 
55 80 
55 82 
55 89 
55 99 
55 101 
55 109 
55 110 
55 118 
55 120 
55 124 
55 129 
55 131 
55 139 
55 143 
55 147 
55 153 
55 155 
55 156 
55 157 
55 168 
55 174 
55 175 
56 57 
56 58 
56 59 
56 65 
56 68 
56 74 
56 83 
56 90 
56 94 
56 95 
56 100 
56 108 
56 110 
56 122 
56 125 
56 130 
56 144 
56 149 
56 150 
56 153 
56 158 
56 159 
56 164 
56 165 
56 169 
56 171 
56 174 
57 58 
57 59 
57 68 
57 69 
57 77 
57 87 
57 88 
57 101 
57 111 
57 112 
57 116 
57 119 
57 127 
57 133 
57 136 
57 139 
57 150 
57 152 
57 157 
57 158 
57 160 
57 161 
57 162 
57 169 
57 172 
57 175 
58 59 
58 60 
58 76 
58 82 
58 92 
58 94 
58 102 
58 107 
58 114 
58 121 
58 127 
58 132 
58 134 
58 145 
58 146 
58 148 
58 156 
58 157 
58 158 
58 160 
58 163 
58 165 
58 166 
58 167 
58 170 
59 67 
59 75 
59 78 
59 89 
59 93 
59 102 
59 103 
59 106 
59 109 
59 119 
59 129 
59 135 
59 138 
59 140 
59 146 
59 152 
59 161 
59 164 
59 166 
59 170 
59 171 
59 172 
59 173 
59 176 
60 61 
60 62 
60 63 
60 64 
60 65 
60 66 
60 67 
60 68 
60 69 
60 70 
60 71 
60 76 
60 84 
60 94 
60 95 
60 96 
60 97 
60 98 
60 99 
60 100 
60 101 
60 102 
60 103 
60 104 
60 114 
60 121 
60 132 
60 146 
60 157 
60 158 
60 163 
60 167 
60 170 
61 62 
61 63 
61 64 
61 65 
61 66 
61 67 
61 68 
61 69 
61 70 
61 71 
61 73 
61 75 
61 84 
61 86 
61 95 
61 105 
61 106 
61 107 
61 108 
61 109 
61 110 
61 111 
61 112 
61 113 
61 114 
61 115 
61 123 
61 124 
61 125 
61 126 
61 127 
61 128 
61 129 
62 63 
62 64 
62 65 
62 66 
62 67 
62 68 
62 69 
62 70 
62 71 
62 74 
62 83 
62 85 
62 91 
62 98 
62 105 
62 114 
62 115 
62 116 
62 117 
62 118 
62 119 
62 120 
62 121 
62 122 
62 128 
62 134 
62 141 
62 147 
62 149 
62 162 
62 172 
62 176 
63 64 
63 65 
63 66 
63 67 
63 68 
63 69 
63 70 
63 71 
63 72 
63 80 
63 89 
63 96 
63 99 
63 106 
63 109 
63 115 
63 118 
63 124 
63 130 
63 131 
63 132 
63 133 
63 134 
63 135 
63 136 
63 139 
63 143 
63 153 
63 156 
63 157 
64 65 
64 66 
64 67 
64 68 
64 69 
64 70 
64 71 
64 76 
64 82 
64 86 
64 101 
64 107 
64 110 
64 116 
64 120 
64 129 
64 130 
64 131 
64 137 
64 138 
64 139 
64 140 
64 141 
64 142 
64 147 
64 155 
64 168 
64 174 
64 175 
65 66 
65 67 
65 68 
65 69 
65 70 
65 71 
65 77 
65 83 
65 87 
65 94 
65 95 
65 96 
65 108 
65 117 
65 122 
65 123 
65 137 
65 143 
65 144 
65 145 
65 146 
65 147 
65 150 
65 164 
65 165 
65 169 
65 171 
65 174 
66 67 
66 68 
66 69 
66 70 
66 71 
66 78 
66 81 
66 97 
66 104 
66 105 
66 113 
66 124 
66 125 
66 131 
66 135 
66 137 
66 141 
66 148 
66 149 
66 150 
66 151 
66 152 
66 155 
66 156 
66 161 
66 167 
66 169 
67 68 
67 69 
67 70 
67 71 
67 78 
67 79 
67 88 
67 89 
67 98 
67 103 
67 106 
67 108 
67 117 
67 129 
67 132 
67 138 
67 140 
67 148 
67 153 
67 154 
67 155 
67 161 
67 166 
67 170 
67 171 
67 172 
68 69 
68 70 
68 71 
68 74 
68 77 
68 88 
68 90 
68 100 
68 110 
68 112 
68 116 
68 125 
68 127 
68 130 
68 136 
68 144 
68 149 
68 152 
68 153 
68 157 
68 158 
68 159 
68 169 
68 172 
68 175 
69 70 
69 71 
69 73 
69 87 
69 93 
69 101 
69 103 
69 111 
69 118 
69 119 
69 128 
69 133 
69 139 
69 150 
69 151 
69 154 
69 158 
69 159 
69 160 
69 161 
69 162 
69 165 
69 167 
69 168 
70 71 
70 79 
70 81 
70 91 
70 92 
70 97 
70 99 
70 112 
70 120 
70 122 
70 123 
70 126 
70 133 
70 140 
70 142 
70 144 
70 154 
70 159 
70 160 
70 163 
70 164 
70 170 
70 173 
70 175 
71 80 
71 85 
71 90 
71 100 
71 104 
71 111 
71 113 
71 121 
71 126 
71 136 
71 142 
71 143 
71 145 
71 151 
71 162 
71 163 
71 166 
71 168 
71 171 
71 173 
71 174 
71 176 
72 73 
72 74 
72 75 
72 76 
72 77 
72 78 
72 79 
72 80 
72 81 
72 82 
72 83 
72 84 
72 85 
72 86 
72 87 
72 88 
72 89 
72 90 
72 91 
72 92 
72 93 
72 94 
72 96 
72 106 
72 115 
72 130 
72 131 
72 132 
72 133 
72 134 
72 135 
72 136 
73 74 
73 75 
73 76 
73 77 
73 78 
73 79 
73 80 
73 81 
73 82 
73 83 
73 84 
73 93 
73 103 
73 105 
73 106 
73 107 
73 108 
73 109 
73 110 
73 111 
73 112 
73 113 
73 114 
73 118 
73 128 
73 151 
73 154 
73 159 
73 165 
73 167 
73 168 
74 75 
74 76 
74 77 
74 78 
74 79 
74 80 
74 81 
74 82 
74 83 
74 85 
74 90 
74 100 
74 105 
74 110 
74 115 
74 116 
74 117 
74 118 
74 119 
74 120 
74 121 
74 122 
74 125 
74 130 
74 144 
74 149 
74 153 
74 158 
74 159 
75 76 
75 77 
75 78 
75 79 
75 80 
75 81 
75 82 
75 83 
75 86 
75 93 
75 95 
75 102 
75 109 
75 115 
75 119 
75 123 
75 124 
75 125 
75 126 
75 127 
75 128 
75 129 
75 135 
75 138 
75 146 
75 152 
75 164 
75 173 
75 176 
76 77 
76 78 
76 79 
76 80 
76 81 
76 82 
76 83 
76 86 
76 94 
76 107 
76 114 
76 116 
76 121 
76 130 
76 132 
76 137 
76 138 
76 139 
76 140 
76 141 
76 142 
76 146 
76 157 
76 158 
76 163 
76 167 
76 170 
77 78 
77 79 
77 80 
77 81 
77 82 
77 83 
77 87 
77 88 
77 96 
77 112 
77 116 
77 117 
77 123 
77 127 
77 136 
77 137 
77 143 
77 144 
77 145 
77 146 
77 147 
77 152 
77 157 
77 169 
77 172 
77 175 
78 79 
78 80 
78 81 
78 82 
78 83 
78 89 
78 97 
78 103 
78 105 
78 106 
78 124 
78 129 
78 131 
78 137 
78 140 
78 148 
78 149 
78 150 
78 151 
78 152 
78 161 
78 166 
78 170 
78 171 
78 172 
79 80 
79 81 
79 82 
79 83 
79 88 
79 92 
79 98 
79 99 
79 108 
79 117 
79 122 
79 123 
79 132 
79 133 
79 138 
79 142 
79 148 
79 153 
79 154 
79 155 
79 159 
79 170 
79 173 
79 175 
80 81 
80 82 
80 83 
80 85 
80 89 
80 99 
80 100 
80 109 
80 113 
80 118 
80 124 
80 136 
80 139 
80 143 
80 145 
80 153 
80 156 
80 157 
80 162 
80 163 
80 168 
80 171 
80 173 
81 82 
81 83 
81 91 
81 97 
81 104 
81 112 
81 113 
81 120 
81 125 
81 126 
81 135 
81 140 
81 141 
81 144 
81 154 
81 155 
81 156 
81 160 
81 161 
81 163 
81 164 
81 167 
81 169 
82 83 
82 92 
82 101 
82 102 
82 107 
82 110 
82 120 
82 127 
82 129 
82 131 
82 134 
82 145 
82 147 
82 148 
82 155 
82 156 
82 160 
82 165 
82 166 
82 168 
82 174 
82 175 
83 91 
83 94 
83 95 
83 98 
83 108 
83 114 
83 122 
83 128 
83 134 
83 141 
83 147 
83 149 
83 150 
83 162 
83 164 
83 165 
83 169 
83 171 
83 172 
83 174 
83 176 
84 85 
84 86 
84 87 
84 88 
84 89 
84 90 
84 91 
84 92 
84 93 
84 94 
84 95 
84 96 
84 97 
84 98 
84 99 
84 100 
84 101 
84 102 
84 103 
84 104 
84 105 
84 106 
84 107 
84 108 
84 109 
84 110 
84 111 
84 112 
84 113 
84 114 
85 86 
85 87 
85 88 
85 89 
85 90 
85 91 
85 92 
85 93 
85 94 
85 100 
85 105 
85 113 
85 115 
85 116 
85 117 
85 118 
85 119 
85 120 
85 121 
85 122 
85 136 
85 145 
85 162 
85 163 
85 168 
85 171 
85 173 
86 87 
86 88 
86 89 
86 90 
86 91 
86 92 
86 93 
86 94 
86 95 
86 107 
86 115 
86 116 
86 123 
86 124 
86 125 
86 126 
86 127 
86 128 
86 129 
86 130 
86 137 
86 138 
86 139 
86 140 
86 141 
86 142 
87 88 
87 89 
87 90 
87 91 
87 92 
87 93 
87 94 
87 96 
87 101 
87 111 
87 117 
87 119 
87 123 
87 133 
87 137 
87 139 
87 143 
87 144 
87 145 
87 146 
87 147 
87 150 
87 158 
87 160 
87 161 
87 162 
88 89 
88 90 
88 91 
88 92 
88 93 
88 94 
88 98 
88 108 
88 112 
88 116 
88 117 
88 127 
88 132 
88 136 
88 138 
88 148 
88 152 
88 153 
88 154 
88 155 
88 157 
88 169 
88 172 
88 175 
89 90 
89 91 
89 92 
89 93 
89 94 
89 99 
89 103 
89 106 
89 109 
89 118 
89 124 
89 129 
89 139 
89 140 
89 143 
89 153 
89 156 
89 157 
89 161 
89 166 
89 170 
89 171 
89 172 
90 91 
90 92 
90 93 
90 94 
90 100 
90 104 
90 110 
90 111 
90 121 
90 125 
90 126 
90 130 
90 142 
90 143 
90 144 
90 149 
90 151 
90 153 
90 158 
90 159 
90 166 
90 174 
90 176 
91 92 
91 93 
91 94 
91 97 
91 98 
91 112 
91 114 
91 120 
91 126 
91 128 
91 134 
91 140 
91 141 
91 144 
91 147 
91 149 
91 154 
91 160 
91 162 
91 163 
91 164 
91 172 
91 176 
92 93 
92 94 
92 99 
92 102 
92 107 
92 122 
92 123 
92 127 
92 133 
92 134 
92 142 
92 145 
92 148 
92 156 
92 159 
92 160 
92 165 
92 166 
92 170 
92 173 
92 175 
93 94 
93 102 
93 103 
93 109 
93 118 
93 119 
93 128 
93 135 
93 138 
93 146 
93 151 
93 152 
93 154 
93 159 
93 164 
93 165 
93 167 
93 168 
93 173 
93 176 
94 95 
94 108 
94 114 
94 121 
94 122 
94 132 
94 146 
94 150 
94 157 
94 158 
94 163 
94 164 
94 165 
94 167 
94 169 
94 170 
94 171 
94 174 
95 96 
95 97 
95 98 
95 99 
95 100 
95 101 
95 102 
95 103 
95 104 
95 108 
95 115 
95 122 
95 123 
95 124 
95 125 
95 126 
95 127 
95 128 
95 129 
95 150 
95 164 
95 165 
95 169 
95 171 
95 174 
96 97 
96 98 
96 99 
96 100 
96 101 
96 102 
96 103 
96 104 
96 106 
96 115 
96 117 
96 123 
96 130 
96 131 
96 132 
96 133 
96 134 
96 135 
96 136 
96 137 
96 143 
96 144 
96 145 
96 146 
96 147 
97 98 
97 99 
97 100 
97 101 
97 102 
97 103 
97 104 
97 105 
97 112 
97 120 
97 124 
97 126 
97 131 
97 137 
97 140 
97 144 
97 148 
97 149 
97 150 
97 151 
97 152 
97 154 
97 160 
97 163 
97 164 
98 99 
98 100 
98 101 
98 102 
98 103 
98 104 
98 108 
98 114 
98 117 
98 128 
98 132 
98 134 
98 138 
98 141 
98 147 
98 148 
98 149 
98 153 
98 154 
98 155 
98 162 
98 172 
98 176 
99 100 
99 101 
99 102 
99 103 
99 104 
99 109 
99 118 
99 122 
99 123 
99 124 
99 133 
99 139 
99 142 
99 143 
99 153 
99 156 
99 157 
99 159 
99 170 
99 173 
99 175 
100 101 
100 102 
100 103 
100 104 
100 110 
100 113 
100 125 
100 130 
100 136 
100 144 
100 145 
100 149 
100 153 
100 158 
100 159 
100 162 
100 163 
100 168 
100 171 
100 173 
101 102 
101 103 
101 104 
101 110 
101 111 
101 119 
101 120 
101 129 
101 131 
101 133 
101 139 
101 147 
101 150 
101 155 
101 158 
101 160 
101 161 
101 162 
101 168 
101 174 
101 175 
102 103 
102 104 
102 107 
102 109 
102 119 
102 127 
102 134 
102 135 
102 138 
102 145 
102 146 
102 148 
102 152 
102 156 
102 160 
102 164 
102 165 
102 166 
102 173 
102 176 
103 104 
103 106 
103 118 
103 128 
103 129 
103 140 
103 151 
103 154 
103 159 
103 161 
103 165 
103 166 
103 167 
103 168 
103 170 
103 171 
103 172 
104 111 
104 113 
104 121 
104 125 
104 126 
104 135 
104 141 
104 142 
104 143 
104 151 
104 155 
104 156 
104 161 
104 166 
104 167 
104 169 
104 174 
104 176 
105 106 
105 107 
105 108 
105 109 
105 110 
105 111 
105 112 
105 113 
105 114 
105 115 
105 116 
105 117 
105 118 
105 119 
105 120 
105 121 
105 122 
105 124 
105 131 
105 137 
105 148 
105 149 
105 150 
105 151 
105 152 
106 107 
106 108 
106 109 
106 110 
106 111 
106 112 
106 113 
106 114 
106 115 
106 129 
106 130 
106 131 
106 132 
106 133 
106 134 
106 135 
106 136 
106 140 
106 161 
106 166 
106 170 
106 171 
106 172 
107 108 
107 109 
107 110 
107 111 
107 112 
107 113 
107 114 
107 116 
107 127 
107 130 
107 134 
107 137 
107 138 
107 139 
107 140 
107 141 
107 142 
107 145 
107 148 
107 156 
107 160 
107 165 
107 166 
108 109 
108 110 
108 111 
108 112 
108 113 
108 114 
108 117 
108 122 
108 132 
108 138 
108 148 
108 150 
108 153 
108 154 
108 155 
108 164 
108 165 
108 169 
108 171 
108 174 
109 110 
109 111 
109 112 
109 113 
109 114 
109 118 
109 119 
109 124 
109 135 
109 138 
109 139 
109 143 
109 146 
109 152 
109 153 
109 156 
109 157 
109 164 
109 173 
109 176 
110 111 
110 112 
110 113 
110 114 
110 120 
110 125 
110 129 
110 130 
110 131 
110 144 
110 147 
110 149 
110 153 
110 155 
110 158 
110 159 
110 168 
110 174 
110 175 
111 112 
111 113 
111 114 
111 119 
111 121 
111 126 
111 133 
111 139 
111 142 
111 143 
111 150 
111 151 
111 158 
111 160 
111 161 
111 162 
111 166 
111 174 
111 176 
112 113 
112 114 
112 116 
112 120 
112 126 
112 127 
112 136 
112 140 
112 144 
112 152 
112 154 
112 157 
112 160 
112 163 
112 164 
112 169 
112 172 
112 175 
113 114 
113 125 
113 135 
113 136 
113 141 
113 145 
113 155 
113 156 
113 161 
113 162 
113 163 
113 167 
113 168 
113 169 
113 171 
113 173 
114 121 
114 128 
114 132 
114 134 
114 141 
114 146 
114 147 
114 149 
114 157 
114 158 
114 162 
114 163 
114 167 
114 170 
114 172 
114 176 
115 116 
115 117 
115 118 
115 119 
115 120 
115 121 
115 122 
115 123 
115 124 
115 125 
115 126 
115 127 
115 128 
115 129 
115 130 
115 131 
115 132 
115 133 
115 134 
115 135 
115 136 
116 117 
116 118 
116 119 
116 120 
116 121 
116 122 
116 127 
116 130 
116 136 
116 137 
116 138 
116 139 
116 140 
116 141 
116 142 
116 152 
116 157 
116 169 
116 172 
116 175 
117 118 
117 119 
117 120 
117 121 
117 122 
117 123 
117 132 
117 137 
117 138 
117 143 
117 144 
117 145 
117 146 
117 147 
117 148 
117 153 
117 154 
117 155 
118 119 
118 120 
118 121 
118 122 
118 124 
118 128 
118 139 
118 143 
118 151 
118 153 
118 154 
118 156 
118 157 
118 159 
118 165 
118 167 
118 168 
119 120 
119 121 
119 122 
119 133 
119 135 
119 138 
119 139 
119 146 
119 150 
119 152 
119 158 
119 160 
119 161 
119 162 
119 164 
119 173 
119 176 
120 121 
120 122 
120 126 
120 129 
120 131 
120 140 
120 144 
120 147 
120 154 
120 155 
120 160 
120 163 
120 164 
120 168 
120 174 
120 175 
121 122 
121 126 
121 132 
121 142 
121 143 
121 146 
121 151 
121 157 
121 158 
121 163 
121 166 
121 167 
121 170 
121 174 
121 176 
122 123 
122 133 
122 142 
122 150 
122 159 
122 164 
122 165 
122 169 
122 170 
122 171 
122 173 
122 174 
122 175 
123 124 
123 125 
123 126 
123 127 
123 128 
123 129 
123 133 
123 137 
123 142 
123 143 
123 144 
123 145 
123 146 
123 147 
123 159 
123 170 
123 173 
123 175 
124 125 
124 126 
124 127 
124 128 
124 129 
124 131 
124 137 
124 139 
124 143 
124 148 
124 149 
124 150 
124 151 
124 152 
124 153 
124 156 
124 157 
125 126 
125 127 
125 128 
125 129 
125 130 
125 135 
125 141 
125 144 
125 149 
125 153 
125 155 
125 156 
125 158 
125 159 
125 161 
125 167 
125 169 
126 127 
126 128 
126 129 
126 140 
126 142 
126 143 
126 144 
126 151 
126 154 
126 160 
126 163 
126 164 
126 166 
126 174 
126 176 
127 128 
127 129 
127 134 
127 136 
127 145 
127 148 
127 152 
127 156 
127 157 
127 160 
127 165 
127 166 
127 169 
127 172 
127 175 
128 129 
128 134 
128 141 
128 147 
128 149 
128 151 
128 154 
128 159 
128 162 
128 165 
128 167 
128 168 
128 172 
128 176 
129 131 
129 140 
129 147 
129 155 
129 161 
129 166 
129 168 
129 170 
129 171 
129 172 
129 174 
129 175 
130 131 
130 132 
130 133 
130 134 
130 135 
130 136 
130 137 
130 138 
130 139 
130 140 
130 141 
130 142 
130 144 
130 149 
130 153 
130 158 
130 159 
131 132 
131 133 
131 134 
131 135 
131 136 
131 137 
131 147 
131 148 
131 149 
131 150 
131 151 
131 152 
131 155 
131 168 
131 174 
131 175 
132 133 
132 134 
132 135 
132 136 
132 138 
132 146 
132 148 
132 153 
132 154 
132 155 
132 157 
132 158 
132 163 
132 167 
132 170 
133 134 
133 135 
133 136 
133 139 
133 142 
133 150 
133 158 
133 159 
133 160 
133 161 
133 162 
133 170 
133 173 
133 175 
134 135 
134 136 
134 141 
134 145 
134 147 
134 148 
134 149 
134 156 
134 160 
134 162 
134 165 
134 166 
134 172 
134 176 
135 136 
135 138 
135 141 
135 146 
135 152 
135 155 
135 156 
135 161 
135 164 
135 167 
135 169 
135 173 
135 176 
136 145 
136 152 
136 157 
136 162 
136 163 
136 168 
136 169 
136 171 
136 172 
136 173 
136 175 
137 138 
137 139 
137 140 
137 141 
137 142 
137 143 
137 144 
137 145 
137 146 
137 147 
137 148 
137 149 
137 150 
137 151 
137 152 
138 139 
138 140 
138 141 
138 142 
138 146 
138 148 
138 152 
138 153 
138 154 
138 155 
138 164 
138 173 
138 176 
139 140 
139 141 
139 142 
139 143 
139 150 
139 153 
139 156 
139 157 
139 158 
139 160 
139 161 
139 162 
140 141 
140 142 
140 144 
140 154 
140 160 
140 161 
140 163 
140 164 
140 166 
140 170 
140 171 
140 172 
141 142 
141 147 
141 149 
141 155 
141 156 
141 161 
141 162 
141 167 
141 169 
141 172 
141 176 
142 143 
142 151 
142 159 
142 166 
142 170 
142 173 
142 174 
142 175 
142 176 
143 144 
143 145 
143 146 
143 147 
143 151 
143 153 
143 156 
143 157 
143 166 
143 174 
143 176 
144 145 
144 146 
144 147 
144 149 
144 153 
144 154 
144 158 
144 159 
144 160 
144 163 
144 164 
145 146 
145 147 
145 148 
145 156 
145 160 
145 162 
145 163 
145 165 
145 166 
145 168 
145 171 
145 173 
146 147 
146 152 
146 157 
146 158 
146 163 
146 164 
146 167 
146 170 
146 173 
146 176 
147 149 
147 155 
147 162 
147 168 
147 172 
147 174 
147 175 
147 176 
148 149 
148 150 
148 151 
148 152 
148 153 
148 154 
148 155 
148 156 
148 160 
148 165 
148 166 
149 150 
149 151 
149 152 
149 153 
149 158 
149 159 
149 162 
149 172 
149 176 
150 151 
150 152 
150 158 
150 160 
150 161 
150 162 
150 164 
150 165 
150 169 
150 171 
150 174 
151 152 
151 154 
151 159 
151 165 
151 166 
151 167 
151 168 
151 174 
151 176 
152 157 
152 164 
152 169 
152 172 
152 173 
152 175 
152 176 
153 154 
153 155 
153 156 
153 157 
153 158 
153 159 
154 155 
154 159 
154 160 
154 163 
154 164 
154 165 
154 167 
154 168 
155 156 
155 161 
155 167 
155 168 
155 169 
155 174 
155 175 
156 157 
156 160 
156 161 
156 165 
156 166 
156 167 
156 169 
157 158 
157 163 
157 167 
157 169 
157 170 
157 172 
157 175 
158 159 
158 160 
158 161 
158 162 
158 163 
158 167 
158 170 
159 165 
159 167 
159 168 
159 170 
159 173 
159 175 
160 161 
160 162 
160 163 
160 164 
160 165 
160 166 
161 162 
161 166 
161 167 
161 169 
161 170 
161 171 
161 172 
162 163 
162 168 
162 171 
162 172 
162 173 
162 176 
163 164 
163 167 
163 168 
163 170 
163 171 
163 173 
164 165 
164 169 
164 171 
164 173 
164 174 
164 176 
165 166 
165 167 
165 168 
165 169 
165 171 
165 174 
166 170 
166 171 
166 172 
166 174 
166 176 
167 168 
167 169 
167 170 
168 171 
168 173 
168 174 
168 175 
169 171 
169 172 
169 174 
169 175 
170 171 
170 172 
170 173 
170 175 
171 172 
171 173 
171 174 
172 175 
172 176 
173 175 
173 176 
174 175 
174 176 
